N = 5;
H = 6;
T = 2;

avail = array3d(1..N, 1..H, 1..T, [0, 4, 10, 10, 3, 1, 2, 8, 7, 3, 1, 3, 8, 0, 3, 10, 6, 10, 6, 0, 10, 1, 5, 4, 5, 8, 7, 10, 2, 10, 1, 5, 10, 9, 0, 3, 2, 0, 2, 7, 1, 3, 3, 9, 9, 0, 10, 7, 3, 4, 9, 5, 5, 5, 0, 2, 6, 1, 1, 8]);

r = array2d(1..H, 1..T, [0, 1, 2, 0, 0, 1, 0, 1, 1, 1, 1, 2]);
